Mack/Bortfeldt(2008)
Bin-Packing-Problem
BP-RG/SBSBPP/SSSCSP
Testcase-ID	5
Problem-ID	59
no_item_types	15
no_items	1826
CONTAINER_DATA (l,w,h)	459	105	93
ITEMS_DATA:
Type	x	y	z	no_items
1	114	75	69	143
2	78	76	68	105
3	90	70	63	114
4	80	76	54	123
5	94	85	39	120
6	94	61	54	124
7	84	78	28	125
8	84	61	33	109
9	107	40	39	146
10	69	50	45	122
11	70	57	37	107
12	72	53	37	136
13	92	44	29	111
14	91	44	28	116
15	89	43	27	125
